c 棋盘对应的.cnf文件
p cnf 160 551
1 0
-2 0
-3 0
4 0
7 0
8 0
-11 0
-12 0
-13 0
15 0
-16 0
1 2 3 0
-1 -2 -3 0
1 5 9 0
-1 -5 -9 0
2 3 4 0
-2 -3 -4 0
5 9 13 0
-5 -9 -13 0
5 6 7 0
-5 -6 -7 0
2 6 10 0
-2 -6 -10 0
6 7 8 0
-6 -7 -8 0
6 10 14 0
-6 -10 -14 0
9 10 11 0
-9 -10 -11 0
3 7 11 0
-3 -7 -11 0
10 11 12 0
-10 -11 -12 0
7 11 15 0
-7 -11 -15 0
13 14 15 0
-13 -14 -15 0
4 8 12 0
-4 -8 -12 0
14 15 16 0
-14 -15 -16 0
8 12 16 0
-8 -12 -16 0
1 2 3 0
1 2 4 0
1 3 4 0
2 3 4 0
-1 -2 -3 0
-1 -2 -4 0
-1 -3 -4 0
-2 -3 -4 0
1 5 9 0
1 5 13 0
1 9 13 0
5 9 13 0
-1 -5 -9 0
-1 -5 -13 0
-1 -9 -13 0
-5 -9 -13 0
5 6 7 0
5 6 8 0
5 7 8 0
6 7 8 0
-5 -6 -7 0
-5 -6 -8 0
-5 -7 -8 0
-6 -7 -8 0
2 6 10 0
2 6 14 0
2 10 14 0
6 10 14 0
-2 -6 -10 0
-2 -6 -14 0
-2 -10 -14 0
-6 -10 -14 0
9 10 11 0
9 10 12 0
9 11 12 0
10 11 12 0
-9 -10 -11 0
-9 -10 -12 0
-9 -11 -12 0
-10 -11 -12 0
3 7 11 0
3 7 15 0
3 11 15 0
7 11 15 0
-3 -7 -11 0
-3 -7 -15 0
-3 -11 -15 0
-7 -11 -15 0
13 14 15 0
13 14 16 0
13 15 16 0
14 15 16 0
-13 -14 -15 0
-13 -14 -16 0
-13 -15 -16 0
-14 -15 -16 0
4 8 12 0
4 8 16 0
4 12 16 0
8 12 16 0
-4 -8 -12 0
-4 -8 -16 0
-4 -12 -16 0
-8 -12 -16 0
1 -17 0
5 -17 0
-1 -5 17 0
-1 -18 0
-5 -18 0
1 5 18 0
-17 19 0
-18 19 0
17 18 -19 0
2 -20 0
6 -20 0
-2 -6 20 0
-2 -21 0
-6 -21 0
2 6 21 0
-20 22 0
-21 22 0
20 21 -22 0
3 -23 0
7 -23 0
-3 -7 23 0
-3 -24 0
-7 -24 0
3 7 24 0
-23 25 0
-24 25 0
23 24 -25 0
4 -26 0
8 -26 0
-4 -8 26 0
-4 -27 0
-8 -27 0
4 8 27 0
-26 28 0
-27 28 0
26 27 -28 0
-19 -22 -25 -28  0
1 -29 0
9 -29 0
-1 -9 29 0
-1 -30 0
-9 -30 0
1 9 30 0
-29 31 0
-30 31 0
29 30 -31 0
2 -32 0
10 -32 0
-2 -10 32 0
-2 -33 0
-10 -33 0
2 10 33 0
-32 34 0
-33 34 0
32 33 -34 0
3 -35 0
11 -35 0
-3 -11 35 0
-3 -36 0
-11 -36 0
3 11 36 0
-35 37 0
-36 37 0
35 36 -37 0
4 -38 0
12 -38 0
-4 -12 38 0
-4 -39 0
-12 -39 0
4 12 39 0
-38 40 0
-39 40 0
38 39 -40 0
-31 -34 -37 -40  0
1 -41 0
13 -41 0
-1 -13 41 0
-1 -42 0
-13 -42 0
1 13 42 0
-41 43 0
-42 43 0
41 42 -43 0
2 -44 0
14 -44 0
-2 -14 44 0
-2 -45 0
-14 -45 0
2 14 45 0
-44 46 0
-45 46 0
44 45 -46 0
3 -47 0
15 -47 0
-3 -15 47 0
-3 -48 0
-15 -48 0
3 15 48 0
-47 49 0
-48 49 0
47 48 -49 0
4 -50 0
16 -50 0
-4 -16 50 0
-4 -51 0
-16 -51 0
4 16 51 0
-50 52 0
-51 52 0
50 51 -52 0
-43 -46 -49 -52  0
5 -53 0
9 -53 0
-5 -9 53 0
-5 -54 0
-9 -54 0
5 9 54 0
-53 55 0
-54 55 0
53 54 -55 0
6 -56 0
10 -56 0
-6 -10 56 0
-6 -57 0
-10 -57 0
6 10 57 0
-56 58 0
-57 58 0
56 57 -58 0
7 -59 0
11 -59 0
-7 -11 59 0
-7 -60 0
-11 -60 0
7 11 60 0
-59 61 0
-60 61 0
59 60 -61 0
8 -62 0
12 -62 0
-8 -12 62 0
-8 -63 0
-12 -63 0
8 12 63 0
-62 64 0
-63 64 0
62 63 -64 0
-55 -58 -61 -64  0
5 -65 0
13 -65 0
-5 -13 65 0
-5 -66 0
-13 -66 0
5 13 66 0
-65 67 0
-66 67 0
65 66 -67 0
6 -68 0
14 -68 0
-6 -14 68 0
-6 -69 0
-14 -69 0
6 14 69 0
-68 70 0
-69 70 0
68 69 -70 0
7 -71 0
15 -71 0
-7 -15 71 0
-7 -72 0
-15 -72 0
7 15 72 0
-71 73 0
-72 73 0
71 72 -73 0
8 -74 0
16 -74 0
-8 -16 74 0
-8 -75 0
-16 -75 0
8 16 75 0
-74 76 0
-75 76 0
74 75 -76 0
-67 -70 -73 -76  0
9 -77 0
13 -77 0
-9 -13 77 0
-9 -78 0
-13 -78 0
9 13 78 0
-77 79 0
-78 79 0
77 78 -79 0
10 -80 0
14 -80 0
-10 -14 80 0
-10 -81 0
-14 -81 0
10 14 81 0
-80 82 0
-81 82 0
80 81 -82 0
11 -83 0
15 -83 0
-11 -15 83 0
-11 -84 0
-15 -84 0
11 15 84 0
-83 85 0
-84 85 0
83 84 -85 0
12 -86 0
16 -86 0
-12 -16 86 0
-12 -87 0
-16 -87 0
12 16 87 0
-86 88 0
-87 88 0
86 87 -88 0
-79 -82 -85 -88  0
1 -89 0
2 -89 0
-1 -2 89 0
-1 -90 0
-2 -90 0
1 2 90 0
-89 91 0
-90 91 0
89 90 -91 0
5 -92 0
6 -92 0
-5 -6 92 0
-5 -93 0
-6 -93 0
5 6 93 0
-92 94 0
-93 94 0
92 93 -94 0
9 -95 0
10 -95 0
-9 -10 95 0
-9 -96 0
-10 -96 0
9 10 96 0
-95 97 0
-96 97 0
95 96 -97 0
13 -98 0
14 -98 0
-13 -14 98 0
-13 -99 0
-14 -99 0
13 14 99 0
-98 100 0
-99 100 0
98 99 -100 0
-91 -94 -97 -100  0
1 -101 0
3 -101 0
-1 -3 101 0
-1 -102 0
-3 -102 0
1 3 102 0
-101 103 0
-102 103 0
101 102 -103 0
5 -104 0
7 -104 0
-5 -7 104 0
-5 -105 0
-7 -105 0
5 7 105 0
-104 106 0
-105 106 0
104 105 -106 0
9 -107 0
11 -107 0
-9 -11 107 0
-9 -108 0
-11 -108 0
9 11 108 0
-107 109 0
-108 109 0
107 108 -109 0
13 -110 0
15 -110 0
-13 -15 110 0
-13 -111 0
-15 -111 0
13 15 111 0
-110 112 0
-111 112 0
110 111 -112 0
-103 -106 -109 -112  0
1 -113 0
4 -113 0
-1 -4 113 0
-1 -114 0
-4 -114 0
1 4 114 0
-113 115 0
-114 115 0
113 114 -115 0
5 -116 0
8 -116 0
-5 -8 116 0
-5 -117 0
-8 -117 0
5 8 117 0
-116 118 0
-117 118 0
116 117 -118 0
9 -119 0
12 -119 0
-9 -12 119 0
-9 -120 0
-12 -120 0
9 12 120 0
-119 121 0
-120 121 0
119 120 -121 0
13 -122 0
16 -122 0
-13 -16 122 0
-13 -123 0
-16 -123 0
13 16 123 0
-122 124 0
-123 124 0
122 123 -124 0
-115 -118 -121 -124  0
2 -125 0
3 -125 0
-2 -3 125 0
-2 -126 0
-3 -126 0
2 3 126 0
-125 127 0
-126 127 0
125 126 -127 0
6 -128 0
7 -128 0
-6 -7 128 0
-6 -129 0
-7 -129 0
6 7 129 0
-128 130 0
-129 130 0
128 129 -130 0
10 -131 0
11 -131 0
-10 -11 131 0
-10 -132 0
-11 -132 0
10 11 132 0
-131 133 0
-132 133 0
131 132 -133 0
14 -134 0
15 -134 0
-14 -15 134 0
-14 -135 0
-15 -135 0
14 15 135 0
-134 136 0
-135 136 0
134 135 -136 0
-127 -130 -133 -136  0
2 -137 0
4 -137 0
-2 -4 137 0
-2 -138 0
-4 -138 0
2 4 138 0
-137 139 0
-138 139 0
137 138 -139 0
6 -140 0
8 -140 0
-6 -8 140 0
-6 -141 0
-8 -141 0
6 8 141 0
-140 142 0
-141 142 0
140 141 -142 0
10 -143 0
12 -143 0
-10 -12 143 0
-10 -144 0
-12 -144 0
10 12 144 0
-143 145 0
-144 145 0
143 144 -145 0
14 -146 0
16 -146 0
-14 -16 146 0
-14 -147 0
-16 -147 0
14 16 147 0
-146 148 0
-147 148 0
146 147 -148 0
-139 -142 -145 -148  0
3 -149 0
4 -149 0
-3 -4 149 0
-3 -150 0
-4 -150 0
3 4 150 0
-149 151 0
-150 151 0
149 150 -151 0
7 -152 0
8 -152 0
-7 -8 152 0
-7 -153 0
-8 -153 0
7 8 153 0
-152 154 0
-153 154 0
152 153 -154 0
11 -155 0
12 -155 0
-11 -12 155 0
-11 -156 0
-12 -156 0
11 12 156 0
-155 157 0
-156 157 0
155 156 -157 0
15 -158 0
16 -158 0
-15 -16 158 0
-15 -159 0
-16 -159 0
15 16 159 0
-158 160 0
-159 160 0
158 159 -160 0
-151 -154 -157 -160  0
